p cnf 347 808
1 0
-2 0
-3 0
-4 0
-5 0
-6 0
-7 0
-8 0
-9 0
-10 0
-11 0
-12 0
-13 0
-14 0
-15 0
-16 0
-17 0
-18 0
-19 0
-20 0
-21 0
-22 0
-23 0
-24 0
-25 0
-26 0
-27 0
-28 0
-29 0
-30 0
-31 0
-32 0
-33 0
-34 0
-35 0
-36 0
-37 0
-38 0
-39 0
-40 0
1 -41 0
-1 41 0
42 43 0
44 43 0
-42 -44 -43 0
-2 43 -45 0
2 -43 -45 0
45 -43 -2 0
2 43 45 0
-45 0
1 46 0
47 46 0
-1 -47 -46 0
-42 46 -48 0
42 -46 -48 0
48 -46 -42 0
42 46 48 0
-48 0
49 50 0
51 50 0
-49 -51 -50 0
-3 50 -52 0
3 -50 -52 0
52 -50 -3 0
3 50 52 0
-52 0
53 54 0
55 54 0
-53 -55 -54 0
-49 54 -56 0
49 -54 -56 0
56 -54 -49 0
49 54 56 0
-56 0
57 58 0
51 58 0
55 58 0
-57 -51 -55 -58 0
-53 58 -59 0
53 -58 -59 0
59 -58 -53 0
53 58 59 0
-59 0
53 60 0
61 60 0
-53 -61 -60 0
-4 60 -62 0
4 -60 -62 0
62 -60 -4 0
4 60 62 0
-62 0
63 64 0
65 64 0
-63 -65 -64 0
-5 64 -66 0
5 -64 -66 0
66 -64 -5 0
5 64 66 0
-66 0
6 67 0
68 67 0
-6 -68 -67 0
-63 67 -69 0
63 -67 -69 0
69 -67 -63 0
63 67 69 0
-69 0
7 70 0
71 70 0
-7 -71 -70 0
-6 70 -72 0
6 -70 -72 0
72 -70 -6 0
6 70 72 0
-72 0
73 74 0
71 74 0
-71 -73 -74 0
-7 74 -75 0
7 -74 -75 0
75 -74 -7 0
7 74 75 0
-75 0
76 77 0
78 77 0
-76 -78 -77 0
-8 77 -79 0
8 -77 -79 0
79 -77 -8 0
8 77 79 0
-79 0
80 81 0
82 81 0
-80 -82 -81 0
-76 81 -83 0
76 -81 -83 0
83 -81 -76 0
76 81 83 0
-83 0
84 85 0
86 85 0
-84 -86 -85 0
-80 85 -87 0
80 -85 -87 0
87 -85 -80 0
80 85 87 0
-87 0
88 89 0
90 89 0
-88 -90 -89 0
-84 89 -91 0
84 -89 -91 0
91 -89 -84 0
84 89 91 0
-91 0
92 93 0
94 93 0
-92 -94 -93 0
-88 93 -95 0
88 -93 -95 0
95 -93 -88 0
88 93 95 0
-95 0
96 97 0
98 97 0
-96 -98 -97 0
-92 97 -99 0
92 -97 -99 0
99 -97 -92 0
92 97 99 0
-99 0
100 101 0
102 101 0
-100 -102 -101 0
-96 101 -103 0
96 -101 -103 0
103 -101 -96 0
96 101 103 0
-103 0
94 104 0
98 104 0
102 104 0
105 104 0
-106 0
-100 104 -107 0
100 -104 -107 0
107 -104 -100 0
100 104 107 0
-107 0
108 109 0
110 109 0
-108 -110 -109 0
-9 109 -111 0
9 -109 -111 0
111 -109 -9 0
9 109 111 0
-111 0
92 112 0
113 112 0
-92 -113 -112 0
-108 112 -114 0
108 -112 -114 0
114 -112 -108 0
108 112 114 0
-114 0
115 116 0
117 116 0
-115 -117 -116 0
-10 116 -118 0
10 -116 -118 0
118 -116 -10 0
10 116 118 0
-118 0
119 120 0
121 120 0
-119 -121 -120 0
-115 120 -122 0
115 -120 -122 0
122 -120 -115 0
115 120 122 0
-122 0
123 124 0
125 124 0
-123 -125 -124 0
-119 124 -126 0
119 -124 -126 0
126 -124 -119 0
119 124 126 0
-126 0
127 128 0
129 128 0
-127 -129 -128 0
-123 128 -130 0
123 -128 -130 0
130 -128 -123 0
123 128 130 0
-130 0
131 132 0
133 132 0
-131 -133 -132 0
-127 132 -134 0
127 -132 -134 0
134 -132 -127 0
127 132 134 0
-134 0
135 136 0
137 136 0
-135 -137 -136 0
-131 136 -138 0
131 -136 -138 0
138 -136 -131 0
131 136 138 0
-138 0
129 139 0
133 139 0
137 139 0
140 139 0
-141 0
-135 139 -142 0
135 -139 -142 0
142 -139 -135 0
135 139 142 0
-142 0
12 143 0
144 143 0
-12 -144 -143 0
-11 143 -145 0
11 -143 -145 0
145 -143 -11 0
11 143 145 0
-145 0
12 -146 0
-12 146 0
9 147 0
148 147 0
-9 -148 -147 0
-13 147 -149 0
13 -147 -149 0
149 -147 -13 0
13 147 149 0
-149 0
15 150 0
151 150 0
-15 -151 -150 0
-14 150 -152 0
14 -150 -152 0
152 -150 -14 0
14 150 152 0
-152 0
11 153 0
154 153 0
-11 -154 -153 0
-15 153 -155 0
15 -153 -155 0
155 -153 -15 0
15 153 155 0
-155 0
156 157 0
158 157 0
-156 -158 -157 0
-16 157 -159 0
16 -157 -159 0
159 -157 -16 0
16 157 159 0
-159 0
127 160 0
161 160 0
-127 -161 -160 0
-156 160 -162 0
156 -160 -162 0
162 -160 -156 0
156 160 162 0
-162 0
5 163 0
164 163 0
-5 -164 -163 0
-17 163 -165 0
17 -163 -165 0
165 -163 -17 0
17 163 165 0
-165 0
96 166 0
167 166 0
-96 -167 -166 0
-18 166 -168 0
18 -166 -168 0
168 -166 -18 0
18 166 168 0
-168 0
169 170 0
171 170 0
-169 -171 -170 0
-19 170 -172 0
19 -170 -172 0
172 -170 -19 0
19 170 172 0
-172 0
108 173 0
174 173 0
-108 -174 -173 0
-169 173 -175 0
169 -173 -175 0
175 -173 -169 0
169 173 175 0
-175 0
21 176 0
177 176 0
-21 -177 -176 0
-20 176 -178 0
20 -176 -178 0
178 -176 -20 0
20 176 178 0
-178 0
179 180 0
181 180 0
-179 -181 -180 0
-21 180 -182 0
21 -180 -182 0
182 -180 -21 0
21 180 182 0
-182 0
4 183 0
184 183 0
-4 -184 -183 0
-179 183 -185 0
179 -183 -185 0
185 -183 -179 0
179 183 185 0
-185 0
63 186 0
187 186 0
-63 -187 -186 0
-22 186 -188 0
22 -186 -188 0
188 -186 -22 0
22 186 188 0
-188 0
189 190 0
191 190 0
-189 -191 -190 0
-23 190 -192 0
23 -190 -192 0
192 -190 -23 0
23 190 192 0
-192 0
193 194 0
195 194 0
-193 -195 -194 0
-189 194 -196 0
189 -194 -196 0
196 -194 -189 0
189 194 196 0
-196 0
197 198 0
199 198 0
-197 -199 -198 0
-193 198 -200 0
193 -198 -200 0
200 -198 -193 0
193 198 200 0
-200 0
201 202 0
203 202 0
-201 -203 -202 0
-197 202 -204 0
197 -202 -204 0
204 -202 -197 0
197 202 204 0
-204 0
205 206 0
207 206 0
-205 -207 -206 0
-201 206 -208 0
201 -206 -208 0
208 -206 -201 0
201 206 208 0
-208 0
209 210 0
211 210 0
-209 -211 -210 0
-205 210 -212 0
205 -210 -212 0
212 -210 -205 0
205 210 212 0
-212 0
207 213 0
214 213 0
211 213 0
-207 -214 -211 -213 0
-209 213 -215 0
209 -213 -215 0
215 -213 -209 0
209 213 215 0
-215 0
216 217 0
218 217 0
-216 -218 -217 0
-24 217 -219 0
24 -217 -219 0
219 -217 -24 0
24 217 219 0
-219 0
205 220 0
221 220 0
-205 -221 -220 0
-216 220 -222 0
216 -220 -222 0
222 -220 -216 0
216 220 222 0
-222 0
223 224 0
225 224 0
-223 -225 -224 0
-25 224 -226 0
25 -224 -226 0
226 -224 -25 0
25 224 226 0
-226 0
22 227 0
228 227 0
-22 -228 -227 0
-223 227 -229 0
223 -227 -229 0
229 -227 -223 0
223 227 229 0
-229 0
27 230 0
231 230 0
-27 -231 -230 0
-26 230 -232 0
26 -230 -232 0
232 -230 -26 0
26 230 232 0
-232 0
22 233 0
234 233 0
-22 -234 -233 0
-27 233 -235 0
27 -233 -235 0
235 -233 -27 0
27 233 235 0
-235 0
236 237 0
238 237 0
-236 -238 -237 0
-28 237 -239 0
28 -237 -239 0
239 -237 -28 0
28 237 239 0
-239 0
49 240 0
241 240 0
-49 -241 -240 0
-236 240 -242 0
236 -240 -242 0
242 -240 -236 0
236 240 242 0
-242 0
27 243 0
244 243 0
-27 -244 -243 0
-29 243 -245 0
29 -243 -245 0
245 -243 -29 0
29 243 245 0
-245 0
2 246 0
247 246 0
-2 -247 -246 0
-30 246 -248 0
30 -246 -248 0
248 -246 -30 0
30 246 248 0
-248 0
2 249 0
250 249 0
-2 -250 -249 0
-31 249 -251 0
31 -249 -251 0
251 -249 -31 0
31 249 251 0
-251 0
31 252 0
253 252 0
-31 -253 -252 0
-32 252 -254 0
32 -252 -254 0
254 -252 -32 0
32 252 254 0
-254 0
255 256 0
257 256 0
-255 -257 -256 0
-33 256 -258 0
33 -256 -258 0
258 -256 -33 0
33 256 258 0
-258 0
135 259 0
260 259 0
-135 -260 -259 0
-255 259 -261 0
255 -259 -261 0
261 -259 -255 0
255 259 261 0
-261 0
262 263 0
264 263 0
-262 -264 -263 0
-34 263 -265 0
34 -263 -265 0
265 -263 -34 0
34 263 265 0
-265 0
266 267 0
268 267 0
-266 -268 -267 0
-262 267 -269 0
262 -267 -269 0
269 -267 -262 0
262 267 269 0
-269 0
42 270 0
271 270 0
-42 -271 -270 0
-266 270 -272 0
266 -270 -272 0
272 -270 -266 0
266 270 272 0
-272 0
84 273 0
274 273 0
-84 -274 -273 0
-35 273 -275 0
35 -273 -275 0
275 -273 -35 0
35 273 275 0
-275 0
276 277 0
278 277 0
-276 -278 -277 0
-36 277 -279 0
36 -277 -279 0
279 -277 -36 0
36 277 279 0
-279 0
280 281 0
282 281 0
-280 -282 -281 0
-276 281 -283 0
276 -281 -283 0
283 -281 -276 0
276 281 283 0
-283 0
284 285 0
286 285 0
-284 -286 -285 0
-280 285 -287 0
280 -285 -287 0
287 -285 -280 0
280 285 287 0
-287 0
288 289 0
290 289 0
-288 -290 -289 0
-284 289 -291 0
284 -289 -291 0
291 -289 -284 0
284 289 291 0
-291 0
292 293 0
294 293 0
-292 -294 -293 0
-288 293 -295 0
288 -293 -295 0
295 -293 -288 0
288 293 295 0
-295 0
296 297 0
298 297 0
-296 -298 -297 0
-292 297 -299 0
292 -297 -299 0
299 -297 -292 0
292 297 299 0
-299 0
300 301 0
302 301 0
-300 -302 -301 0
-296 301 -303 0
296 -301 -303 0
303 -301 -296 0
296 301 303 0
-303 0
9 304 0
305 304 0
-9 -305 -304 0
-300 304 -306 0
300 -304 -306 0
306 -304 -300 0
300 304 306 0
-306 0
307 308 0
309 308 0
-307 -309 -308 0
-37 308 -310 0
37 -308 -310 0
310 -308 -37 0
37 308 310 0
-310 0
311 312 0
313 312 0
-311 -313 -312 0
-307 312 -314 0
307 -312 -314 0
314 -312 -307 0
307 312 314 0
-314 0
119 315 0
316 315 0
-119 -316 -315 0
-311 315 -317 0
311 -315 -317 0
317 -315 -311 0
311 315 317 0
-317 0
318 319 0
320 319 0
-318 -320 -319 0
-38 319 -321 0
38 -319 -321 0
321 -319 -38 0
38 319 321 0
-321 0
322 323 0
324 323 0
-322 -324 -323 0
-318 323 -325 0
318 -323 -325 0
325 -323 -318 0
318 323 325 0
-325 0
292 326 0
327 326 0
-292 -327 -326 0
-322 326 -328 0
322 -326 -328 0
328 -326 -322 0
322 326 328 0
-328 0
266 329 0
330 329 0
-266 -330 -329 0
-39 329 -331 0
39 -329 -331 0
331 -329 -39 0
39 329 331 0
-331 0
332 333 0
334 333 0
-332 -334 -333 0
-40 333 -335 0
40 -333 -335 0
335 -333 -40 0
40 333 335 0
-335 0
236 336 0
337 336 0
-236 -337 -336 0
-332 336 -338 0
332 -336 -338 0
338 -336 -332 0
332 336 338 0
-338 0
41 -339 0
44 -339 0
-339 -47 0
51 -339 0
55 -339 0
-339 -57 0
-339 -61 0
-339 -65 0
-339 -68 0
-339 -71 0
73 -339 0
-339 -78 0
-339 -82 0
-339 -86 0
-339 -90 0
-339 -94 0
-339 -98 0
-339 -102 0
105 -339 0
-339 -110 0
113 -339 0
-339 -117 0
121 -339 0
-339 -125 0
-339 -129 0
-339 -133 0
137 -339 0
140 -339 0
144 -339 0
-339 -146 0
148 -339 0
151 -339 0
-339 -154 0
-339 -158 0
161 -339 0
-339 -164 0
167 -339 0
171 -339 0
174 -339 0
-339 -177 0
-339 -181 0
-339 -184 0
187 -339 0
191 -339 0
195 -339 0
-339 -199 0
203 -339 0
-339 -207 0
211 -339 0
-339 -214 0
-339 -218 0
221 -339 0
225 -339 0
-339 -228 0
231 -339 0
234 -339 0
238 -339 0
-339 -241 0
-339 -244 0
-339 -247 0
250 -339 0
253 -339 0
257 -339 0
-339 -260 0
-339 -264 0
-339 -268 0
-339 -271 0
274 -339 0
-339 -278 0
282 -339 0
-339 -286 0
-339 -290 0
-339 -294 0
298 -339 0
302 -339 0
305 -339 0
309 -339 0
-339 -313 0
-339 -316 0
-339 -320 0
324 -339 0
327 -339 0
330 -339 0
-339 -334 0
-339 -337 0
339 0
-340 0
-341 0
-342 0
-343 0
-344 0
-345 0
-346 0
-347 0
